\* FanduelSelections *\
Maximize
OBJ: 22 x0 + 33 x1 + 30.7 x2 + 41.64 x3
Subject To
_C1: x0 + x1 + x2 + x3 = 9
_dummy: __dummy = 0
_C2: __dummy = 2
_C3: x0 + x3 = 2
_C4: x2 = 2
_C5: __dummy = 2
_C6: x1 = 1
_C7: 4800 x0 + 6700 x1 + 6300 x2 + 8700 x3 <= 60000
Bounds
__dummy = 0
Binaries
x0
x1
x2
x3
End
